benchmark_str_length/p2_10_12-4.dzn
Alphabet = {A,C,G,T};
ns = 10;
nc = 12;
sl = 12;
neighbours = [| I(C),I(T),I(T),Null,Null,Null,Null,Null,Null,Null,Null,Null | I(T),Null,Null,Null,Null,Null,Null,Null,Null,Null,Null,Null | I(A),I(A),I(T),I(G),I(A),I(C),I(A),I(C),I(G),Null,Null,Null | I(T),I(T),I(A),I(C),I(A),I(A),I(G),I(G),I(G),I(G),I(C),Null | I(A),I(A),I(G),I(C),I(A),I(A),I(C),I(A),I(G),Null,Null,Null | I(T),I(C),I(T),Null,Null,Null,Null,Null,Null,Null,Null,Null | I(A),I(G),I(G),I(C),I(A),I(C),I(A),I(G),Null,Null,Null,Null | I(C),I(T),I(C),I(T),Null,Null,Null,Null,Null,Null,Null,Null | I(G),I(T),I(G),I(C),I(A),I(A),I(G),I(C),I(G),I(T),I(C),I(G) | I(G),I(C),Null,Null,Null,Null,Null,Null,Null,Null,Null,Null |];
